161 5
10 10 10 10 10 

0 0 0 0 0 0 5 2 24 46 58 80 
0 0 0 0 0 0 3 3 17 22 
1 0 1 0 0 1 1 4 
2 0 1 0 0 3 3 21 13 5 
10 0 4 0 0 2 1 6 
9 0 4 0 0 3 1 7 
5 0 2 0 0 4 1 8 
4 0 2 0 0 4 2 20 9 
7 0 1 0 0 3 1 10 
5 0 3 0 0 3 1 11 
10 0 1 0 0 2 1 12 
1 0 3 0 0 2 1 14 
5 0 3 0 0 2 1 14 
6 0 2 0 0 1 1 15 
9 0 3 0 0 1 1 16 
1 0 5 0 0 1 1 18 
3 0 1 0 0 4 1 18 
2 0 2 0 0 2 1 19 
9 0 3 0 0 2 1 23 
2 0 2 0 0 3 1 23 
5 0 2 0 0 5 1 23 
1 0 5 0 0 2 1 23 
0 0 0 0 0 0 1 126 
0 0 0 0 0 0 1 25 
8 0 0 1 1 0 1 26 
5 0 0 4 2 0 2 29 27 
8 0 0 3 3 0 1 28 
8 0 0 2 1 0 1 30 
8 0 0 5 2 0 1 30 
7 0 0 1 4 0 1 31 
5 0 0 1 1 0 2 33 32 
7 0 0 3 2 0 1 34 
1 0 0 3 4 0 2 37 36 
3 0 0 3 4 0 1 35 
6 0 0 1 2 0 1 36 
2 0 0 1 2 0 2 41 38 
3 0 0 2 2 0 2 41 38 
4 0 0 2 4 0 2 40 39 
4 0 0 3 3 0 1 42 
5 0 0 3 3 0 1 42 
8 0 0 5 3 0 1 42 
5 0 0 2 4 0 1 43 
9 0 0 2 1 0 1 44 
7 0 0 3 2 0 1 45 
0 0 0 0 0 0 1 126 
0 0 0 0 0 0 2 47 55 
7 0 0 0 1 0 2 49 48 
2 0 0 0 2 0 2 54 50 
7 0 0 0 4 0 2 54 52 
2 0 0 0 2 0 1 51 
8 0 0 0 1 0 1 52 
5 0 0 0 4 0 1 53 
3 0 0 0 2 0 1 56 
2 0 0 0 3 0 1 56 
3 0 0 0 4 0 1 56 
3 0 0 0 2 0 1 57 
0 0 0 0 0 0 2 102 114 
0 0 0 0 0 0 2 59 65 
2 0 1 0 0 1 1 60 
9 0 5 0 0 1 1 61 
6 0 2 0 0 5 1 62 
5 0 4 0 0 3 2 67 63 
10 0 3 0 0 3 1 64 
4 0 2 0 0 3 2 76 66 
2 0 5 0 0 2 2 76 66 
10 0 2 0 0 1 1 68 
4 0 2 0 0 4 1 68 
3 0 1 0 0 2 2 75 69 
2 0 3 0 0 2 1 70 
9 0 2 0 0 3 2 78 71 
10 0 3 0 0 1 1 72 
9 0 1 0 0 3 1 73 
9 0 5 0 0 3 1 74 
3 0 2 0 0 3 1 77 
1 0 2 0 0 1 1 78 
9 0 2 0 0 2 1 77 
10 0 1 0 0 4 1 79 
3 0 2 0 0 3 1 79 
0 0 0 0 0 0 1 126 
0 0 0 0 0 0 1 81 
3 1 1 0 0 0 2 85 82 
2 9 4 0 0 0 2 87 83 
4 2 2 0 0 0 1 84 
2 2 1 0 0 0 1 86 
10 2 3 0 0 0 1 86 
2 2 2 0 0 0 2 91 88 
4 1 1 0 0 0 1 88 
4 7 2 0 0 0 2 95 89 
3 3 5 0 0 0 1 90 
10 2 3 0 0 0 1 92 
3 2 2 0 0 0 1 92 
4 4 2 0 0 0 2 100 93 
6 2 4 0 0 0 1 94 
5 2 3 0 0 0 1 96 
3 1 1 0 0 0 1 96 
7 2 5 0 0 0 1 97 
10 1 2 0 0 0 1 98 
1 1 2 0 0 0 1 99 
7 3 2 0 0 0 1 101 
4 1 3 0 0 0 1 101 
0 0 0 0 0 0 1 126 
0 0 0 0 0 0 4 103 107 109 112 
9 0 0 0 1 0 1 104 
8 0 0 0 3 0 1 105 
4 0 0 0 2 0 1 106 
5 0 0 0 3 0 1 108 
4 0 0 0 3 0 1 108 
4 0 0 0 1 0 1 110 
5 0 0 0 3 0 1 110 
9 0 0 0 3 0 1 111 
10 0 0 0 3 0 1 113 
10 0 0 0 3 0 1 113 
0 0 0 0 0 0 1 126 
0 0 0 0 0 0 1 115 
6 0 1 0 0 0 1 116 
1 0 3 0 0 0 1 117 
7 0 4 0 0 0 3 120 119 118 
8 0 1 0 0 0 2 122 121 
7 0 1 0 0 0 2 122 121 
7 0 2 0 0 0 2 122 121 
10 0 3 0 0 0 1 123 
9 0 4 0 0 0 1 123 
1 0 4 0 0 0 1 124 
3 0 2 0 0 0 1 125 
0 0 0 0 0 0 1 126 
0 0 0 0 0 0 2 127 131 
3 0 0 1 0 0 2 130 128 
4 0 0 3 0 0 1 129 
1 0 0 2 0 0 2 133 132 
6 0 0 3 0 0 2 133 132 
6 0 0 4 0 0 2 133 132 
1 0 0 3 0 0 1 134 
5 0 0 1 0 0 1 134 
9 0 0 2 0 0 1 135 
5 0 0 3 0 0 1 136 
9 0 0 3 0 0 1 137 
0 0 0 0 0 0 1 138 
0 0 0 0 0 0 1 139 
7 0 0 1 0 0 2 141 140 
5 0 0 3 0 0 3 145 143 142 
7 0 0 1 0 0 2 145 144 
10 0 0 3 0 0 1 144 
10 0 0 1 0 0 1 144 
1 0 0 3 0 0 1 146 
7 0 0 4 0 0 1 146 
9 0 0 3 0 0 1 147 
7 0 0 4 0 0 1 148 
3 0 0 2 0 0 1 149 
0 0 0 0 0 0 1 150 
0 0 0 0 0 0 1 151 
1 0 0 1 0 0 1 152 
6 0 0 4 0 0 2 160 153 
6 0 0 3 0 0 2 158 154 
2 0 0 2 0 0 2 157 155 
10 0 0 1 0 0 1 156 
5 0 0 3 0 0 1 159 
5 0 0 3 0 0 1 159 
9 0 0 1 0 0 1 159 
4 0 0 5 0 0 1 161 
9 0 0 2 0 0 1 161 
0 0 0 0 0 0 0 
